%%
% Autogenerated by /opt/prj/battleships-ai/src/server/solver.py, instance 0 6x6 [7] #5 <zf1c>
% Source: https://www.puzzle-battleships.com/?size=0
%%

size = 6;
hints_num = 1;
hints = [| 6, 3 |];
ships_num = 6;

constr_rows = [0, 3, 0, 3, 1, 3];
constr_cols = [2, 1, 1, 2, 3, 1];

given_ships = [|
<>, <>, <>, <>, 1, |
<>, <>, <>, <>, 1, |
<>, <>, <>, <>, 1, |
<>, <>, <>, <>, 2, |
<>, <>, <>, <>, 2, |
<>, <>, <>, <>, 3  |];

